HUN,8,6,424
1,8,5,13,3,9,4,18,0,23,2,23
4,27,0,1,3,14,5,27,1,7,2,17
0,7,3,17,4,5,5,4,2,17,1,14
0,20,3,26,4,26,5,22,2,5,1,27
3,24,5,15,2,24,0,3,4,5,1,24
3,22,2,24,1,21,4,30,5,15,0,21
0,10,2,27,1,17,4,24,5,2,3,11
3,22,0,26,2,23,4,7,1,20,5,23
